<instance format="XCSP3" type="CSP">
  <variables>
    <var id="x0"> 0 13 15 17 </var>
    <var id="x1"> 0 1 6 17 </var>
    <var id="x2"> 2 5 6 15 </var>
    <var id="x3"> 0 13 17 </var>
    <var id="x4"> 0 1 6 13 15 </var>
    <var id="x5"> 1 2 5 6 </var>
    <var id="x6"> 0 2 5 6 15 </var>
    <var id="x7"> 1 5 6 13 </var>
    <var id="x8"> 0 11 15 17 </var>
    <var id="x9"> 0 7 11 16 17 </var>
    <var id="x10"> 0 15 16 </var>
    <var id="x11"> 0 7 11 16 </var>
    <var id="x12"> 0 7 15 17 </var>
    <var id="x13"> 5 7 9 11 </var>
    <var id="x14"> 0 5 9 17 </var>
    <var id="x15"> 9 11 16 </var>
    <var id="x16"> 0 4 12 17 </var>
    <var id="x17"> 0 1 6 12 17 </var>
    <var id="x18"> 0 1 3 6 9 17 </var>
    <var id="x19"> 0 3 12 17 </var>
    <var id="x20"> 3 6 12 17 </var>
    <var id="x21"> 0 6 9 </var>
    <var id="x22"> 0 3 6 17 </var>
    <var id="x23"> 0 1 9 12 17 </var>
    <var id="x24"> 0 4 11..13 </var>
    <var id="x25"> 6 16 </var>
    <var id="x26"> 0 1 4 6 12 13 16 </var>
    <var id="x27"> 0 1 4 6 12 13 </var>
    <var id="x28"> 0 6 11 </var>
    <var id="x29"> 1 6 11 13 </var>
    <var id="x30"> 0 1 4 6 11 13 16 </var>
    <var id="x31"> 11..13 </var>
    <var id="x32"> 3 6 16 17 </var>
    <var id="x33"> 3 7 11 13 17 </var>
    <var id="x34"> 6 7 16 </var>
    <var id="x35"> 3 6 7 11 13 </var>
    <var id="x36"> 6 7 11 13 16 </var>
    <var id="x37"> 3 10 13 16 </var>
    <var id="x38"> 7 10 11 13 </var>
    <var id="x39"> 13 17 </var>
    <var id="x40"> 6 11 16 </var>
    <var id="x41"> 6 9 16 </var>
    <var id="x42"> 5 6 10 14 16 </var>
    <var id="x43"> 6 10 13 </var>
    <var id="x44"> 5 6 14 16 </var>
    <var id="x45"> 6 13 </var>
    <var id="x46"> 5 6 9 11 14 </var>
    <var id="x47"> 5 6 11 13 </var>
    <var id="x48"> 0 1 7 12 </var>
    <var id="x49"> 0 1 3 15 </var>
    <var id="x50"> 0 1 12 13 15 </var>
    <var id="x51"> 0 1 12 13 </var>
    <var id="x52"> 0 2 15 </var>
    <var id="x53"> 1 3 7 13 </var>
    <var id="x54"> 0 1 7 13 </var>
    <var id="x55"> 2 13 </var>
    <var id="x56"> 12 13 17 </var>
    <var id="x57"> 6 7 12 17 </var>
    <var id="x58"> 6 8 10 12 13 </var>
    <var id="x59"> 6 7 12 13 17 </var>
    <var id="x60"> 5 6 </var>
    <var id="x61"> 5..7 13 </var>
    <var id="x62"> 10 13 </var>
    <var id="x63"> 5 12 13 17 </var>
    <var id="x64"> 14 </var>
    <var id="x65"> 3 7 14 </var>
    <var id="x66"> 6 </var>
    <var id="x67"> 2 6 7 14 </var>
    <var id="x68"> 2 9 </var>
    <var id="x69"> 3 6 7 10 </var>
    <var id="x70"> 7 9 10 14 </var>
    <var id="x71"> 0 1 16 </var>
    <var id="x72"> 5 10 16 </var>
    <var id="x73"> 0 11 12 </var>
    <var id="x74"> 1 5 12 16 </var>
    <var id="x75"> 0 5 12 16 </var>
    <var id="x76"> 0 1 4 11 16 </var>
    <var id="x77"> 1 4 10 16 </var>
    <var id="x78"> 5 10..12 </var>
    <var id="x79"> 13 15 17 </var>
    <var id="x80"> 5 6 15 </var>
    <var id="x81"> 13 17 </var>
    <var id="x82"> 1 5 6 </var>
    <var id="x83"> 5 9 13 17 </var>
    <var id="x84"> 6 13 15 17 </var>
    <var id="x85"> 1 5 9 13 17 </var>
    <var id="x86"> 0 1 3 6 16 </var>
    <var id="x87"> 0 1 6 12 </var>
    <var id="x88"> 0 5 12 16 </var>
    <var id="x89"> 1 3 16 </var>
    <var id="x90"> 0 3 6 </var>
    <var id="x91"> 5 12 14 </var>
    <var id="x92"> 0 1 5 12 14 </var>
    <var id="x93"> 6 16 </var>
    <var id="x94"> 0 12 16 </var>
    <var id="x95"> 0 4 12 13 15 16 </var>
    <var id="x96"> 0 4 12 13 </var>
    <var id="x97"> 2 12 14 16 </var>
    <var id="x98"> 0 2 12 13 16 </var>
    <var id="x99"> 12 13 15 </var>
    <var id="x100"> 0 13 15 </var>
    <var id="x101"> 2 4 13 16 </var>
    <var id="x102"> 0 7 11 12 16 </var>
    <var id="x103"> 2 16 </var>
    <var id="x104"> 0 12 13 16 </var>
    <var as="x98" id="x105"/>
    <var id="x106"> 3 7 12 13 </var>
    <var id="x107"> 3 13 16 </var>
    <var id="x108"> 0 3 7 13 </var>
    <var id="x109"> 2 11 13 16 </var>
    <var id="x110"> 4 11 13..15 </var>
    <var id="x111"> 9 15 </var>
    <var id="x112"> 8 14 15 </var>
    <var id="x113"> 4 13 15 </var>
    <var id="x114"> 7 13 15 </var>
    <var id="x115"> 7 9 11 13 14 </var>
    <var id="x116"> 9 13 14 </var>
    <var id="x117"> 4 9 11 13 </var>
    <var id="x118"> 0 11 13 14 17 </var>
    <var as="x84" id="x119"/>
    <var id="x120"> 0 6 11 14 15 </var>
    <var id="x121"> 1 6 11 13 </var>
    <var id="x122"> 0 1 6 11 13 </var>
    <var id="x123"> 1 13 </var>
    <var id="x124"> 0 6 13 15 17 </var>
    <var id="x125"> 11 13 14 </var>
    <var id="x126"> 6 14 16 </var>
    <var id="x127"> 12..14 </var>
    <var id="x128"> 4 6 12 13 </var>
    <var id="x129"> 9 12 13 16 </var>
    <var id="x130"> 4 6 13 16 </var>
    <var id="x131"> 4 9 13 16 </var>
    <var id="x132"> 4 6 9 13 16 </var>
    <var id="x133"> 0 1 6 17 </var>
    <var id="x134"> 0 1 6 10 12 13 </var>
    <var id="x135"> 1 6 7 12 </var>
    <var id="x136"> 0 12 13 17 </var>
    <var id="x137"> 0 6 </var>
    <var id="x138"> 0 1 6 7 13 </var>
    <var id="x139"> 0 1 12 13 17 </var>
    <var id="x140"> 6 10 13 </var>
  </variables>
  <constraints>
    <group>
      <allDifferent> %... </allDifferent>
      <args> x0 x1 x2 x3 x4 x5 x6 x7 </args>
      <args> x8 x9 x10 x11 x12 x13 x14 x15 </args>
      <args> x16 x17 x18 x19 x20 x21 x22 x23 </args>
      <args> x24 x25 x26 x27 x28 x29 x30 x31 </args>
      <args> x32 x33 x34 x35 x36 x37 x38 x39 </args>
      <args> x40 x41 x42 x43 x44 x45 x46 x47 </args>
      <args> x48 x49 x50 x51 x52 x53 x54 x55 </args>
      <args> x56 x57 x58 x59 x60 x61 x62 x63 </args>
      <args> x64 x65 x66 x67 x68 x69 x70 </args>
      <args> x71 x72 x73 x74 x75 x76 x77 x78 </args>
      <args> x79 x80 x81 x82 x83 x84 x85 </args>
      <args> x86 x87 x88 x89 x90 x91 x92 x93 </args>
      <args> x94 x95 x96 x97 x98 x99 x100 x101 </args>
      <args> x102 x103 x104 x105 x106 x107 x108 x109 </args>
      <args> x110 x111 x112 x113 x114 x115 x116 x117 </args>
      <args> x118 x119 x120 x121 x122 x123 x124 x125 </args>
      <args> x126 x127 x128 x129 x130 x131 x132 </args>
      <args> x133 x134 x135 x136 x137 x138 x139 x140 </args>
      <args> x0 x8 x16 x24 x56 x64 x79 x110 </args>
      <args> x1 x9 x17 x40 x48 x57 x94 x102 </args>
      <args> x18 x32 x41 x49 x71 x86 x111 x133 </args>
      <args> x2 x25 x42 x72 x80 x103 x112 x126 </args>
      <args> x3 x19 x33 x65 x73 x81 x118 x127 </args>
      <args> x4 x10 x26 x50 x66 x95 x104 x113 </args>
      <args> x27 x43 x51 x58 x87 x96 x128 x134 </args>
      <args> x5 x34 x44 x67 x74 x82 x97 x135 </args>
      <args> x68 x75 x83 x88 x98 x105 x129 x136 </args>
      <args> x20 x45 x59 x99 x106 x114 x119 </args>
      <args> x6 x21 x28 x46 x52 x60 x120 x137 </args>
      <args> x7 x29 x35 x47 x53 x61 x121 </args>
      <args> x11 x30 x36 x54 x76 x122 x130 x138 </args>
      <args> x37 x62 x77 x89 x107 x123 x131 </args>
      <args> x12 x22 x69 x84 x90 x100 x108 x124 </args>
      <args> x13 x31 x38 x70 x78 x91 x115 x125 </args>
      <args> x14 x23 x39 x63 x85 x92 x116 x139 </args>
      <args> x15 x55 x93 x101 x109 x117 x132 x140 </args>
    </group>
  </constraints>
</instance>

